SimulationType                MonteCarlo
NumberOfCycles                25000
NumberOfInitializationCycles  5000
PrintEvery                    1000
RestartFile                   no

Forcefield                    UFF
CutOff                        12.0
ChargeMethod                  Ewald
EwaldPrecision                1e-06
RemoveAtomNumberCodeFromLabel yes

Framework 0
FrameworkName UIO-66
UnitCells 2 2 2
HeliumVoidFraction 0.29
ExternalTemperature 300.0
ExternalPressure 100000.0

ComputeNumberOfMoleculesHistogram yes
WriteNumberOfMoleculesHistogramEvery 5000
NumberOfMoleculesHistogramSize 1000
NumberOfMoleculesRange 100

ComputeEnergyHistogram yes
WriteEnergyHistogramEvery 5000
EnergyHistogramSize 400
EnergyHistogramLowerLimit -50000
EnergyHistogramUpperLimit 5000

Component 0 MoleculeName              water
            MoleculeDefinition        ExampleDefinitions
            TranslationProbability    0.5
            RotationProbability       0.5
            ReinsertionProbability    0.5
            SwapProbability           1.0
            CreateNumberOfMolecules   0
